0 680 21
1 40 57
2 414 526
3 102 52
4 524 213
5 107 132
6 509 173
7 15 57
8 38 195
9 720 219
10 14 71
11 270 788
12 356 178
13 235 165
14 351 139
15 183 713
16 127 36
17 141 30
18 271 319
19 831 501
20 3 34
21 158 144
22 636 464
23 649 161
24 98 88
25 54 211
26 461 637
27 746 722
28 441 678
29 320 143
30 583 253
31 246 155
32 357 148
33 262 203
34 196 411
35 329 56
36 225 165
37 68 38
38 337 354
39 465 597
40 586 312
41 8 161
42 299 439
43 137 425
44 135 354
45 134 172
46 31 159
47 11 220
48 103 251
49 432 3
50 3 403
51 358 13
52 228 166
53 149 442
54 763 61
55 0 469
56 104 353
57 946 139
58 71 513
59 529 20
60 38 127
61 183 73
62 4 431
63 26 259
64 107 546
65 326 226
66 1 293
67 126 377